NAME          
ROWS
 N  OBJ
 L  c1
 L  c2
COLUMNS
    MARKER    'MARKER'                 'INTORG'
    x[1]      c1        974
    x[1]      c2        605
    x[1]      OBJ       -473
    x[2]      c1        972
    x[2]      c2        956
    x[2]      OBJ       -15
    x[3]      c1        795
    x[3]      c2        923
    x[3]      OBJ       -504
    x[4]      c1        575
    x[4]      c2        717
    x[4]      OBJ       -242
    x[5]      c1        966
    x[5]      c2        325
    x[5]      OBJ       -140
    x[6]      c1        424
    x[6]      c2        733
    x[6]      OBJ       -3
    x[7]      c1        128
    x[7]      c2        578
    x[7]      OBJ       -504
    x[8]      c1        592
    x[8]      c2        604
    x[8]      OBJ       -51
    x[9]      c1        196
    x[9]      c2        57
    x[9]      OBJ       -86
    x[10]     c1        394
    x[10]     c2        428
    x[10]     OBJ       -164
    x[11]     c1        813
    x[11]     c2        928
    x[11]     OBJ       -686
    x[12]     c1        181
    x[12]     c2        744
    x[12]     OBJ       -618
    x[13]     c1        765
    x[13]     c2        835
    x[13]     OBJ       -501
    x[14]     c1        244
    x[14]     c2        983
    x[14]     OBJ       -659
    x[15]     c1        218
    x[15]     c2        559
    x[15]     OBJ       -369
    x[16]     c1        838
    x[16]     c2        237
    x[16]     OBJ       -690
    x[17]     c1        275
    x[17]     c2        713
    x[17]     OBJ       -797
    x[18]     c1        50
    x[18]     c2        654
    x[18]     OBJ       -100
    x[19]     c1        284
    x[19]     c2        976
    x[19]     OBJ       -852
    x[20]     c1        676
    x[20]     c2        656
    x[20]     OBJ       -371
    x[21]     c1        784
    x[21]     c2        356
    x[21]     OBJ       -123
    x[22]     c1        131
    x[22]     c2        515
    x[22]     OBJ       -619
    x[23]     c1        65
    x[23]     c2        724
    x[23]     OBJ       -515
    x[24]     c1        81
    x[24]     c2        237
    x[24]     OBJ       -277
    x[25]     c1        865
    x[25]     c2        534
    x[25]     OBJ       -505
    x[26]     c1        292
    x[26]     c2        599
    x[26]     OBJ       -186
    x[27]     c1        233
    x[27]     c2        636
    x[27]     OBJ       -716
    x[28]     c1        970
    x[28]     c2        574
    x[28]     OBJ       -939
    x[29]     c1        391
    x[29]     c2        793
    x[29]     OBJ       -697
    x[30]     c1        534
    x[30]     c2        422
    x[30]     OBJ       -397
    x[31]     c1        315
    x[31]     c2        917
    x[31]     OBJ       -894
    x[32]     c1        732
    x[32]     c2        406
    x[32]     OBJ       -82
    x[33]     c1        462
    x[33]     c2        14
    x[33]     OBJ       -111
    x[34]     c1        206
    x[34]     c2        606
    x[34]     OBJ       -78
    x[35]     c1        87
    x[35]     c2        519
    x[35]     OBJ       -988
    x[36]     c1        529
    x[36]     c2        896
    x[36]     OBJ       -458
    x[37]     c1        503
    x[37]     c2        352
    x[37]     OBJ       -147
    x[38]     c1        521
    x[38]     c2        696
    x[38]     OBJ       -513
    x[39]     c1        803
    x[39]     c2        626
    x[39]     OBJ       -801
    x[40]     c1        523
    x[40]     c2        563
    x[40]     OBJ       -803
    x[41]     c1        800
    x[41]     c2        922
    x[41]     OBJ       -71
    x[42]     c1        777
    x[42]     c2        526
    x[42]     OBJ       -540
    x[43]     c1        84
    x[43]     c2        78
    x[43]     OBJ       -120
    x[44]     c1        406
    x[44]     c2        751
    x[44]     OBJ       -806
    x[45]     c1        127
    x[45]     c2        3
    x[45]     OBJ       -402
RHS
    rhs       c1        10790
    rhs       c2        13238
RANGES
BOUNDS
 BV bounds    x[1]
 BV bounds    x[2]
 BV bounds    x[3]
 BV bounds    x[4]
 BV bounds    x[5]
 BV bounds    x[6]
 BV bounds    x[7]
 BV bounds    x[8]
 BV bounds    x[9]
 BV bounds    x[10]
 BV bounds    x[11]
 BV bounds    x[12]
 BV bounds    x[13]
 BV bounds    x[14]
 BV bounds    x[15]
 BV bounds    x[16]
 BV bounds    x[17]
 BV bounds    x[18]
 BV bounds    x[19]
 BV bounds    x[20]
 BV bounds    x[21]
 BV bounds    x[22]
 BV bounds    x[23]
 BV bounds    x[24]
 BV bounds    x[25]
 BV bounds    x[26]
 BV bounds    x[27]
 BV bounds    x[28]
 BV bounds    x[29]
 BV bounds    x[30]
 BV bounds    x[31]
 BV bounds    x[32]
 BV bounds    x[33]
 BV bounds    x[34]
 BV bounds    x[35]
 BV bounds    x[36]
 BV bounds    x[37]
 BV bounds    x[38]
 BV bounds    x[39]
 BV bounds    x[40]
 BV bounds    x[41]
 BV bounds    x[42]
 BV bounds    x[43]
 BV bounds    x[44]
 BV bounds    x[45]
ENDATA
